n = 85;
rows = 1530;
supports = [|
    1,2,
  | 1,3,
  | 1,4,
  | 1,5,
  | 1,6,
  | 1,7,
  | 1,8,
  | 1,9,
  | 1,10,
  | 1,77,
  | 1,78,
  | 1,79,
  | 1,80,
  | 1,81,
  | 1,82,
  | 1,83,
  | 1,84,
  | 1,85,
  | 2,1,
  | 2,3,
  | 2,4,
  | 2,5,
  | 2,6,
  | 2,7,
  | 2,8,
  | 2,9,
  | 2,10,
  | 2,11,
  | 2,78,
  | 2,79,
  | 2,80,
  | 2,81,
  | 2,82,
  | 2,83,
  | 2,84,
  | 2,85,
  | 3,1,
  | 3,2,
  | 3,4,
  | 3,5,
  | 3,6,
  | 3,7,
  | 3,8,
  | 3,9,
  | 3,10,
  | 3,11,
  | 3,12,
  | 3,79,
  | 3,80,
  | 3,81,
  | 3,82,
  | 3,83,
  | 3,84,
  | 3,85,
  | 4,1,
  | 4,2,
  | 4,3,
  | 4,5,
  | 4,6,
  | 4,7,
  | 4,8,
  | 4,9,
  | 4,10,
  | 4,11,
  | 4,12,
  | 4,13,
  | 4,80,
  | 4,81,
  | 4,82,
  | 4,83,
  | 4,84,
  | 4,85,
  | 5,1,
  | 5,2,
  | 5,3,
  | 5,4,
  | 5,6,
  | 5,7,
  | 5,8,
  | 5,9,
  | 5,10,
  | 5,11,
  | 5,12,
  | 5,13,
  | 5,14,
  | 5,81,
  | 5,82,
  | 5,83,
  | 5,84,
  | 5,85,
  | 6,1,
  | 6,2,
  | 6,3,
  | 6,4,
  | 6,5,
  | 6,7,
  | 6,8,
  | 6,9,
  | 6,10,
  | 6,11,
  | 6,12,
  | 6,13,
  | 6,14,
  | 6,15,
  | 6,82,
  | 6,83,
  | 6,84,
  | 6,85,
  | 7,1,
  | 7,2,
  | 7,3,
  | 7,4,
  | 7,5,
  | 7,6,
  | 7,8,
  | 7,9,
  | 7,10,
  | 7,11,
  | 7,12,
  | 7,13,
  | 7,14,
  | 7,15,
  | 7,16,
  | 7,83,
  | 7,84,
  | 7,85,
  | 8,1,
  | 8,2,
  | 8,3,
  | 8,4,
  | 8,5,
  | 8,6,
  | 8,7,
  | 8,9,
  | 8,10,
  | 8,11,
  | 8,12,
  | 8,13,
  | 8,14,
  | 8,15,
  | 8,16,
  | 8,17,
  | 8,84,
  | 8,85,
  | 9,1,
  | 9,2,
  | 9,3,
  | 9,4,
  | 9,5,
  | 9,6,
  | 9,7,
  | 9,8,
  | 9,10,
  | 9,11,
  | 9,12,
  | 9,13,
  | 9,14,
  | 9,15,
  | 9,16,
  | 9,17,
  | 9,18,
  | 9,85,
  | 10,1,
  | 10,2,
  | 10,3,
  | 10,4,
  | 10,5,
  | 10,6,
  | 10,7,
  | 10,8,
  | 10,9,
  | 10,11,
  | 10,12,
  | 10,13,
  | 10,14,
  | 10,15,
  | 10,16,
  | 10,17,
  | 10,18,
  | 10,19,
  | 11,2,
  | 11,3,
  | 11,4,
  | 11,5,
  | 11,6,
  | 11,7,
  | 11,8,
  | 11,9,
  | 11,10,
  | 11,12,
  | 11,13,
  | 11,14,
  | 11,15,
  | 11,16,
  | 11,17,
  | 11,18,
  | 11,19,
  | 11,20,
  | 12,3,
  | 12,4,
  | 12,5,
  | 12,6,
  | 12,7,
  | 12,8,
  | 12,9,
  | 12,10,
  | 12,11,
  | 12,13,
  | 12,14,
  | 12,15,
  | 12,16,
  | 12,17,
  | 12,18,
  | 12,19,
  | 12,20,
  | 12,21,
  | 13,4,
  | 13,5,
  | 13,6,
  | 13,7,
  | 13,8,
  | 13,9,
  | 13,10,
  | 13,11,
  | 13,12,
  | 13,14,
  | 13,15,
  | 13,16,
  | 13,17,
  | 13,18,
  | 13,19,
  | 13,20,
  | 13,21,
  | 13,22,
  | 14,5,
  | 14,6,
  | 14,7,
  | 14,8,
  | 14,9,
  | 14,10,
  | 14,11,
  | 14,12,
  | 14,13,
  | 14,15,
  | 14,16,
  | 14,17,
  | 14,18,
  | 14,19,
  | 14,20,
  | 14,21,
  | 14,22,
  | 14,23,
  | 15,6,
  | 15,7,
  | 15,8,
  | 15,9,
  | 15,10,
  | 15,11,
  | 15,12,
  | 15,13,
  | 15,14,
  | 15,16,
  | 15,17,
  | 15,18,
  | 15,19,
  | 15,20,
  | 15,21,
  | 15,22,
  | 15,23,
  | 15,24,
  | 16,7,
  | 16,8,
  | 16,9,
  | 16,10,
  | 16,11,
  | 16,12,
  | 16,13,
  | 16,14,
  | 16,15,
  | 16,17,
  | 16,18,
  | 16,19,
  | 16,20,
  | 16,21,
  | 16,22,
  | 16,23,
  | 16,24,
  | 16,25,
  | 17,8,
  | 17,9,
  | 17,10,
  | 17,11,
  | 17,12,
  | 17,13,
  | 17,14,
  | 17,15,
  | 17,16,
  | 17,18,
  | 17,19,
  | 17,20,
  | 17,21,
  | 17,22,
  | 17,23,
  | 17,24,
  | 17,25,
  | 17,26,
  | 18,9,
  | 18,10,
  | 18,11,
  | 18,12,
  | 18,13,
  | 18,14,
  | 18,15,
  | 18,16,
  | 18,17,
  | 18,19,
  | 18,20,
  | 18,21,
  | 18,22,
  | 18,23,
  | 18,24,
  | 18,25,
  | 18,26,
  | 18,27,
  | 19,10,
  | 19,11,
  | 19,12,
  | 19,13,
  | 19,14,
  | 19,15,
  | 19,16,
  | 19,17,
  | 19,18,
  | 19,20,
  | 19,21,
  | 19,22,
  | 19,23,
  | 19,24,
  | 19,25,
  | 19,26,
  | 19,27,
  | 19,28,
  | 20,11,
  | 20,12,
  | 20,13,
  | 20,14,
  | 20,15,
  | 20,16,
  | 20,17,
  | 20,18,
  | 20,19,
  | 20,21,
  | 20,22,
  | 20,23,
  | 20,24,
  | 20,25,
  | 20,26,
  | 20,27,
  | 20,28,
  | 20,29,
  | 21,12,
  | 21,13,
  | 21,14,
  | 21,15,
  | 21,16,
  | 21,17,
  | 21,18,
  | 21,19,
  | 21,20,
  | 21,22,
  | 21,23,
  | 21,24,
  | 21,25,
  | 21,26,
  | 21,27,
  | 21,28,
  | 21,29,
  | 21,30,
  | 22,13,
  | 22,14,
  | 22,15,
  | 22,16,
  | 22,17,
  | 22,18,
  | 22,19,
  | 22,20,
  | 22,21,
  | 22,23,
  | 22,24,
  | 22,25,
  | 22,26,
  | 22,27,
  | 22,28,
  | 22,29,
  | 22,30,
  | 22,31,
  | 23,14,
  | 23,15,
  | 23,16,
  | 23,17,
  | 23,18,
  | 23,19,
  | 23,20,
  | 23,21,
  | 23,22,
  | 23,24,
  | 23,25,
  | 23,26,
  | 23,27,
  | 23,28,
  | 23,29,
  | 23,30,
  | 23,31,
  | 23,32,
  | 24,15,
  | 24,16,
  | 24,17,
  | 24,18,
  | 24,19,
  | 24,20,
  | 24,21,
  | 24,22,
  | 24,23,
  | 24,25,
  | 24,26,
  | 24,27,
  | 24,28,
  | 24,29,
  | 24,30,
  | 24,31,
  | 24,32,
  | 24,33,
  | 25,16,
  | 25,17,
  | 25,18,
  | 25,19,
  | 25,20,
  | 25,21,
  | 25,22,
  | 25,23,
  | 25,24,
  | 25,26,
  | 25,27,
  | 25,28,
  | 25,29,
  | 25,30,
  | 25,31,
  | 25,32,
  | 25,33,
  | 25,34,
  | 26,17,
  | 26,18,
  | 26,19,
  | 26,20,
  | 26,21,
  | 26,22,
  | 26,23,
  | 26,24,
  | 26,25,
  | 26,27,
  | 26,28,
  | 26,29,
  | 26,30,
  | 26,31,
  | 26,32,
  | 26,33,
  | 26,34,
  | 26,35,
  | 27,18,
  | 27,19,
  | 27,20,
  | 27,21,
  | 27,22,
  | 27,23,
  | 27,24,
  | 27,25,
  | 27,26,
  | 27,28,
  | 27,29,
  | 27,30,
  | 27,31,
  | 27,32,
  | 27,33,
  | 27,34,
  | 27,35,
  | 27,36,
  | 28,19,
  | 28,20,
  | 28,21,
  | 28,22,
  | 28,23,
  | 28,24,
  | 28,25,
  | 28,26,
  | 28,27,
  | 28,29,
  | 28,30,
  | 28,31,
  | 28,32,
  | 28,33,
  | 28,34,
  | 28,35,
  | 28,36,
  | 28,37,
  | 29,20,
  | 29,21,
  | 29,22,
  | 29,23,
  | 29,24,
  | 29,25,
  | 29,26,
  | 29,27,
  | 29,28,
  | 29,30,
  | 29,31,
  | 29,32,
  | 29,33,
  | 29,34,
  | 29,35,
  | 29,36,
  | 29,37,
  | 29,38,
  | 30,21,
  | 30,22,
  | 30,23,
  | 30,24,
  | 30,25,
  | 30,26,
  | 30,27,
  | 30,28,
  | 30,29,
  | 30,31,
  | 30,32,
  | 30,33,
  | 30,34,
  | 30,35,
  | 30,36,
  | 30,37,
  | 30,38,
  | 30,39,
  | 31,22,
  | 31,23,
  | 31,24,
  | 31,25,
  | 31,26,
  | 31,27,
  | 31,28,
  | 31,29,
  | 31,30,
  | 31,32,
  | 31,33,
  | 31,34,
  | 31,35,
  | 31,36,
  | 31,37,
  | 31,38,
  | 31,39,
  | 31,40,
  | 32,23,
  | 32,24,
  | 32,25,
  | 32,26,
  | 32,27,
  | 32,28,
  | 32,29,
  | 32,30,
  | 32,31,
  | 32,33,
  | 32,34,
  | 32,35,
  | 32,36,
  | 32,37,
  | 32,38,
  | 32,39,
  | 32,40,
  | 32,41,
  | 33,24,
  | 33,25,
  | 33,26,
  | 33,27,
  | 33,28,
  | 33,29,
  | 33,30,
  | 33,31,
  | 33,32,
  | 33,34,
  | 33,35,
  | 33,36,
  | 33,37,
  | 33,38,
  | 33,39,
  | 33,40,
  | 33,41,
  | 33,42,
  | 34,25,
  | 34,26,
  | 34,27,
  | 34,28,
  | 34,29,
  | 34,30,
  | 34,31,
  | 34,32,
  | 34,33,
  | 34,35,
  | 34,36,
  | 34,37,
  | 34,38,
  | 34,39,
  | 34,40,
  | 34,41,
  | 34,42,
  | 34,43,
  | 35,26,
  | 35,27,
  | 35,28,
  | 35,29,
  | 35,30,
  | 35,31,
  | 35,32,
  | 35,33,
  | 35,34,
  | 35,36,
  | 35,37,
  | 35,38,
  | 35,39,
  | 35,40,
  | 35,41,
  | 35,42,
  | 35,43,
  | 35,44,
  | 36,27,
  | 36,28,
  | 36,29,
  | 36,30,
  | 36,31,
  | 36,32,
  | 36,33,
  | 36,34,
  | 36,35,
  | 36,37,
  | 36,38,
  | 36,39,
  | 36,40,
  | 36,41,
  | 36,42,
  | 36,43,
  | 36,44,
  | 36,45,
  | 37,28,
  | 37,29,
  | 37,30,
  | 37,31,
  | 37,32,
  | 37,33,
  | 37,34,
  | 37,35,
  | 37,36,
  | 37,38,
  | 37,39,
  | 37,40,
  | 37,41,
  | 37,42,
  | 37,43,
  | 37,44,
  | 37,45,
  | 37,46,
  | 38,29,
  | 38,30,
  | 38,31,
  | 38,32,
  | 38,33,
  | 38,34,
  | 38,35,
  | 38,36,
  | 38,37,
  | 38,39,
  | 38,40,
  | 38,41,
  | 38,42,
  | 38,43,
  | 38,44,
  | 38,45,
  | 38,46,
  | 38,47,
  | 39,30,
  | 39,31,
  | 39,32,
  | 39,33,
  | 39,34,
  | 39,35,
  | 39,36,
  | 39,37,
  | 39,38,
  | 39,40,
  | 39,41,
  | 39,42,
  | 39,43,
  | 39,44,
  | 39,45,
  | 39,46,
  | 39,47,
  | 39,48,
  | 40,31,
  | 40,32,
  | 40,33,
  | 40,34,
  | 40,35,
  | 40,36,
  | 40,37,
  | 40,38,
  | 40,39,
  | 40,41,
  | 40,42,
  | 40,43,
  | 40,44,
  | 40,45,
  | 40,46,
  | 40,47,
  | 40,48,
  | 40,49,
  | 41,32,
  | 41,33,
  | 41,34,
  | 41,35,
  | 41,36,
  | 41,37,
  | 41,38,
  | 41,39,
  | 41,40,
  | 41,42,
  | 41,43,
  | 41,44,
  | 41,45,
  | 41,46,
  | 41,47,
  | 41,48,
  | 41,49,
  | 41,50,
  | 42,33,
  | 42,34,
  | 42,35,
  | 42,36,
  | 42,37,
  | 42,38,
  | 42,39,
  | 42,40,
  | 42,41,
  | 42,43,
  | 42,44,
  | 42,45,
  | 42,46,
  | 42,47,
  | 42,48,
  | 42,49,
  | 42,50,
  | 42,51,
  | 43,34,
  | 43,35,
  | 43,36,
  | 43,37,
  | 43,38,
  | 43,39,
  | 43,40,
  | 43,41,
  | 43,42,
  | 43,44,
  | 43,45,
  | 43,46,
  | 43,47,
  | 43,48,
  | 43,49,
  | 43,50,
  | 43,51,
  | 43,52,
  | 44,35,
  | 44,36,
  | 44,37,
  | 44,38,
  | 44,39,
  | 44,40,
  | 44,41,
  | 44,42,
  | 44,43,
  | 44,45,
  | 44,46,
  | 44,47,
  | 44,48,
  | 44,49,
  | 44,50,
  | 44,51,
  | 44,52,
  | 44,53,
  | 45,36,
  | 45,37,
  | 45,38,
  | 45,39,
  | 45,40,
  | 45,41,
  | 45,42,
  | 45,43,
  | 45,44,
  | 45,46,
  | 45,47,
  | 45,48,
  | 45,49,
  | 45,50,
  | 45,51,
  | 45,52,
  | 45,53,
  | 45,54,
  | 46,37,
  | 46,38,
  | 46,39,
  | 46,40,
  | 46,41,
  | 46,42,
  | 46,43,
  | 46,44,
  | 46,45,
  | 46,47,
  | 46,48,
  | 46,49,
  | 46,50,
  | 46,51,
  | 46,52,
  | 46,53,
  | 46,54,
  | 46,55,
  | 47,38,
  | 47,39,
  | 47,40,
  | 47,41,
  | 47,42,
  | 47,43,
  | 47,44,
  | 47,45,
  | 47,46,
  | 47,48,
  | 47,49,
  | 47,50,
  | 47,51,
  | 47,52,
  | 47,53,
  | 47,54,
  | 47,55,
  | 47,56,
  | 48,39,
  | 48,40,
  | 48,41,
  | 48,42,
  | 48,43,
  | 48,44,
  | 48,45,
  | 48,46,
  | 48,47,
  | 48,49,
  | 48,50,
  | 48,51,
  | 48,52,
  | 48,53,
  | 48,54,
  | 48,55,
  | 48,56,
  | 48,57,
  | 49,40,
  | 49,41,
  | 49,42,
  | 49,43,
  | 49,44,
  | 49,45,
  | 49,46,
  | 49,47,
  | 49,48,
  | 49,50,
  | 49,51,
  | 49,52,
  | 49,53,
  | 49,54,
  | 49,55,
  | 49,56,
  | 49,57,
  | 49,58,
  | 50,41,
  | 50,42,
  | 50,43,
  | 50,44,
  | 50,45,
  | 50,46,
  | 50,47,
  | 50,48,
  | 50,49,
  | 50,51,
  | 50,52,
  | 50,53,
  | 50,54,
  | 50,55,
  | 50,56,
  | 50,57,
  | 50,58,
  | 50,59,
  | 51,42,
  | 51,43,
  | 51,44,
  | 51,45,
  | 51,46,
  | 51,47,
  | 51,48,
  | 51,49,
  | 51,50,
  | 51,52,
  | 51,53,
  | 51,54,
  | 51,55,
  | 51,56,
  | 51,57,
  | 51,58,
  | 51,59,
  | 51,60,
  | 52,43,
  | 52,44,
  | 52,45,
  | 52,46,
  | 52,47,
  | 52,48,
  | 52,49,
  | 52,50,
  | 52,51,
  | 52,53,
  | 52,54,
  | 52,55,
  | 52,56,
  | 52,57,
  | 52,58,
  | 52,59,
  | 52,60,
  | 52,61,
  | 53,44,
  | 53,45,
  | 53,46,
  | 53,47,
  | 53,48,
  | 53,49,
  | 53,50,
  | 53,51,
  | 53,52,
  | 53,54,
  | 53,55,
  | 53,56,
  | 53,57,
  | 53,58,
  | 53,59,
  | 53,60,
  | 53,61,
  | 53,62,
  | 54,45,
  | 54,46,
  | 54,47,
  | 54,48,
  | 54,49,
  | 54,50,
  | 54,51,
  | 54,52,
  | 54,53,
  | 54,55,
  | 54,56,
  | 54,57,
  | 54,58,
  | 54,59,
  | 54,60,
  | 54,61,
  | 54,62,
  | 54,63,
  | 55,46,
  | 55,47,
  | 55,48,
  | 55,49,
  | 55,50,
  | 55,51,
  | 55,52,
  | 55,53,
  | 55,54,
  | 55,56,
  | 55,57,
  | 55,58,
  | 55,59,
  | 55,60,
  | 55,61,
  | 55,62,
  | 55,63,
  | 55,64,
  | 56,47,
  | 56,48,
  | 56,49,
  | 56,50,
  | 56,51,
  | 56,52,
  | 56,53,
  | 56,54,
  | 56,55,
  | 56,57,
  | 56,58,
  | 56,59,
  | 56,60,
  | 56,61,
  | 56,62,
  | 56,63,
  | 56,64,
  | 56,65,
  | 57,48,
  | 57,49,
  | 57,50,
  | 57,51,
  | 57,52,
  | 57,53,
  | 57,54,
  | 57,55,
  | 57,56,
  | 57,58,
  | 57,59,
  | 57,60,
  | 57,61,
  | 57,62,
  | 57,63,
  | 57,64,
  | 57,65,
  | 57,66,
  | 58,49,
  | 58,50,
  | 58,51,
  | 58,52,
  | 58,53,
  | 58,54,
  | 58,55,
  | 58,56,
  | 58,57,
  | 58,59,
  | 58,60,
  | 58,61,
  | 58,62,
  | 58,63,
  | 58,64,
  | 58,65,
  | 58,66,
  | 58,67,
  | 59,50,
  | 59,51,
  | 59,52,
  | 59,53,
  | 59,54,
  | 59,55,
  | 59,56,
  | 59,57,
  | 59,58,
  | 59,60,
  | 59,61,
  | 59,62,
  | 59,63,
  | 59,64,
  | 59,65,
  | 59,66,
  | 59,67,
  | 59,68,
  | 60,51,
  | 60,52,
  | 60,53,
  | 60,54,
  | 60,55,
  | 60,56,
  | 60,57,
  | 60,58,
  | 60,59,
  | 60,61,
  | 60,62,
  | 60,63,
  | 60,64,
  | 60,65,
  | 60,66,
  | 60,67,
  | 60,68,
  | 60,69,
  | 61,52,
  | 61,53,
  | 61,54,
  | 61,55,
  | 61,56,
  | 61,57,
  | 61,58,
  | 61,59,
  | 61,60,
  | 61,62,
  | 61,63,
  | 61,64,
  | 61,65,
  | 61,66,
  | 61,67,
  | 61,68,
  | 61,69,
  | 61,70,
  | 62,53,
  | 62,54,
  | 62,55,
  | 62,56,
  | 62,57,
  | 62,58,
  | 62,59,
  | 62,60,
  | 62,61,
  | 62,63,
  | 62,64,
  | 62,65,
  | 62,66,
  | 62,67,
  | 62,68,
  | 62,69,
  | 62,70,
  | 62,71,
  | 63,54,
  | 63,55,
  | 63,56,
  | 63,57,
  | 63,58,
  | 63,59,
  | 63,60,
  | 63,61,
  | 63,62,
  | 63,64,
  | 63,65,
  | 63,66,
  | 63,67,
  | 63,68,
  | 63,69,
  | 63,70,
  | 63,71,
  | 63,72,
  | 64,55,
  | 64,56,
  | 64,57,
  | 64,58,
  | 64,59,
  | 64,60,
  | 64,61,
  | 64,62,
  | 64,63,
  | 64,65,
  | 64,66,
  | 64,67,
  | 64,68,
  | 64,69,
  | 64,70,
  | 64,71,
  | 64,72,
  | 64,73,
  | 65,56,
  | 65,57,
  | 65,58,
  | 65,59,
  | 65,60,
  | 65,61,
  | 65,62,
  | 65,63,
  | 65,64,
  | 65,66,
  | 65,67,
  | 65,68,
  | 65,69,
  | 65,70,
  | 65,71,
  | 65,72,
  | 65,73,
  | 65,74,
  | 66,57,
  | 66,58,
  | 66,59,
  | 66,60,
  | 66,61,
  | 66,62,
  | 66,63,
  | 66,64,
  | 66,65,
  | 66,67,
  | 66,68,
  | 66,69,
  | 66,70,
  | 66,71,
  | 66,72,
  | 66,73,
  | 66,74,
  | 66,75,
  | 67,58,
  | 67,59,
  | 67,60,
  | 67,61,
  | 67,62,
  | 67,63,
  | 67,64,
  | 67,65,
  | 67,66,
  | 67,68,
  | 67,69,
  | 67,70,
  | 67,71,
  | 67,72,
  | 67,73,
  | 67,74,
  | 67,75,
  | 67,76,
  | 68,59,
  | 68,60,
  | 68,61,
  | 68,62,
  | 68,63,
  | 68,64,
  | 68,65,
  | 68,66,
  | 68,67,
  | 68,69,
  | 68,70,
  | 68,71,
  | 68,72,
  | 68,73,
  | 68,74,
  | 68,75,
  | 68,76,
  | 68,77,
  | 69,60,
  | 69,61,
  | 69,62,
  | 69,63,
  | 69,64,
  | 69,65,
  | 69,66,
  | 69,67,
  | 69,68,
  | 69,70,
  | 69,71,
  | 69,72,
  | 69,73,
  | 69,74,
  | 69,75,
  | 69,76,
  | 69,77,
  | 69,78,
  | 70,61,
  | 70,62,
  | 70,63,
  | 70,64,
  | 70,65,
  | 70,66,
  | 70,67,
  | 70,68,
  | 70,69,
  | 70,71,
  | 70,72,
  | 70,73,
  | 70,74,
  | 70,75,
  | 70,76,
  | 70,77,
  | 70,78,
  | 70,79,
  | 71,62,
  | 71,63,
  | 71,64,
  | 71,65,
  | 71,66,
  | 71,67,
  | 71,68,
  | 71,69,
  | 71,70,
  | 71,72,
  | 71,73,
  | 71,74,
  | 71,75,
  | 71,76,
  | 71,77,
  | 71,78,
  | 71,79,
  | 71,80,
  | 72,63,
  | 72,64,
  | 72,65,
  | 72,66,
  | 72,67,
  | 72,68,
  | 72,69,
  | 72,70,
  | 72,71,
  | 72,73,
  | 72,74,
  | 72,75,
  | 72,76,
  | 72,77,
  | 72,78,
  | 72,79,
  | 72,80,
  | 72,81,
  | 73,64,
  | 73,65,
  | 73,66,
  | 73,67,
  | 73,68,
  | 73,69,
  | 73,70,
  | 73,71,
  | 73,72,
  | 73,74,
  | 73,75,
  | 73,76,
  | 73,77,
  | 73,78,
  | 73,79,
  | 73,80,
  | 73,81,
  | 73,82,
  | 74,65,
  | 74,66,
  | 74,67,
  | 74,68,
  | 74,69,
  | 74,70,
  | 74,71,
  | 74,72,
  | 74,73,
  | 74,75,
  | 74,76,
  | 74,77,
  | 74,78,
  | 74,79,
  | 74,80,
  | 74,81,
  | 74,82,
  | 74,83,
  | 75,66,
  | 75,67,
  | 75,68,
  | 75,69,
  | 75,70,
  | 75,71,
  | 75,72,
  | 75,73,
  | 75,74,
  | 75,76,
  | 75,77,
  | 75,78,
  | 75,79,
  | 75,80,
  | 75,81,
  | 75,82,
  | 75,83,
  | 75,84,
  | 76,67,
  | 76,68,
  | 76,69,
  | 76,70,
  | 76,71,
  | 76,72,
  | 76,73,
  | 76,74,
  | 76,75,
  | 76,77,
  | 76,78,
  | 76,79,
  | 76,80,
  | 76,81,
  | 76,82,
  | 76,83,
  | 76,84,
  | 76,85,
  | 77,1,
  | 77,68,
  | 77,69,
  | 77,70,
  | 77,71,
  | 77,72,
  | 77,73,
  | 77,74,
  | 77,75,
  | 77,76,
  | 77,78,
  | 77,79,
  | 77,80,
  | 77,81,
  | 77,82,
  | 77,83,
  | 77,84,
  | 77,85,
  | 78,1,
  | 78,2,
  | 78,69,
  | 78,70,
  | 78,71,
  | 78,72,
  | 78,73,
  | 78,74,
  | 78,75,
  | 78,76,
  | 78,77,
  | 78,79,
  | 78,80,
  | 78,81,
  | 78,82,
  | 78,83,
  | 78,84,
  | 78,85,
  | 79,1,
  | 79,2,
  | 79,3,
  | 79,70,
  | 79,71,
  | 79,72,
  | 79,73,
  | 79,74,
  | 79,75,
  | 79,76,
  | 79,77,
  | 79,78,
  | 79,80,
  | 79,81,
  | 79,82,
  | 79,83,
  | 79,84,
  | 79,85,
  | 80,1,
  | 80,2,
  | 80,3,
  | 80,4,
  | 80,71,
  | 80,72,
  | 80,73,
  | 80,74,
  | 80,75,
  | 80,76,
  | 80,77,
  | 80,78,
  | 80,79,
  | 80,81,
  | 80,82,
  | 80,83,
  | 80,84,
  | 80,85,
  | 81,1,
  | 81,2,
  | 81,3,
  | 81,4,
  | 81,5,
  | 81,72,
  | 81,73,
  | 81,74,
  | 81,75,
  | 81,76,
  | 81,77,
  | 81,78,
  | 81,79,
  | 81,80,
  | 81,82,
  | 81,83,
  | 81,84,
  | 81,85,
  | 82,1,
  | 82,2,
  | 82,3,
  | 82,4,
  | 82,5,
  | 82,6,
  | 82,73,
  | 82,74,
  | 82,75,
  | 82,76,
  | 82,77,
  | 82,78,
  | 82,79,
  | 82,80,
  | 82,81,
  | 82,83,
  | 82,84,
  | 82,85,
  | 83,1,
  | 83,2,
  | 83,3,
  | 83,4,
  | 83,5,
  | 83,6,
  | 83,7,
  | 83,74,
  | 83,75,
  | 83,76,
  | 83,77,
  | 83,78,
  | 83,79,
  | 83,80,
  | 83,81,
  | 83,82,
  | 83,84,
  | 83,85,
  | 84,1,
  | 84,2,
  | 84,3,
  | 84,4,
  | 84,5,
  | 84,6,
  | 84,7,
  | 84,8,
  | 84,75,
  | 84,76,
  | 84,77,
  | 84,78,
  | 84,79,
  | 84,80,
  | 84,81,
  | 84,82,
  | 84,83,
  | 84,85,
  | 85,1,
  | 85,2,
  | 85,3,
  | 85,4,
  | 85,5,
  | 85,6,
  | 85,7,
  | 85,8,
  | 85,9,
  | 85,76,
  | 85,77,
  | 85,78,
  | 85,79,
  | 85,80,
  | 85,81,
  | 85,82,
  | 85,83,
  | 85,84 |];

t = 219;

indexes = [|
    0,6,
  | 0,24,
  | 0,30,
  | 0,60,
  | 0,77,
  | 1,8,
  | 1,13,
  | 1,26,
  | 1,50,
  | 1,73,
  | 1,76,
  | 1,79,
  | 2,23,
  | 2,58,
  | 2,59,
  | 2,67,
  | 2,75,
  | 3,15,
  | 3,21,
  | 3,61,
  | 3,68,
  | 3,69,
  | 3,84,
  | 4,23,
  | 4,27,
  | 4,40,
  | 4,58,
  | 5,18,
  | 5,51,
  | 5,63,
  | 5,67,
  | 5,83,
  | 6,15,
  | 6,26,
  | 6,38,
  | 6,60,
  | 6,77,
  | 6,79,
  | 7,10,
  | 7,37,
  | 7,41,
  | 7,57,
  | 7,66,
  | 8,13,
  | 8,49,
  | 8,50,
  | 8,61,
  | 9,10,
  | 9,48,
  | 10,37,
  | 10,41,
  | 10,48,
  | 10,66,
  | 11,29,
  | 11,36,
  | 11,53,
  | 12,20,
  | 12,25,
  | 12,34,
  | 12,35,
  | 12,54,
  | 12,81,
  | 13,23,
  | 13,25,
  | 13,39,
  | 13,40,
  | 13,43,
  | 13,49,
  | 13,73,
  | 14,31,
  | 14,33,
  | 14,56,
  | 14,57,
  | 14,71,
  | 15,26,
  | 15,38,
  | 15,50,
  | 15,61,
  | 15,84,
  | 16,46,
  | 16,64,
  | 16,72,
  | 17,19,
  | 17,28,
  | 17,34,
  | 17,44,
  | 17,54,
  | 17,65,
  | 18,30,
  | 18,51,
  | 18,67,
  | 18,74,
  | 18,77,
  | 18,79,
  | 19,21,
  | 19,28,
  | 19,42,
  | 19,62,
  | 19,65,
  | 19,69,
  | 20,32,
  | 20,34,
  | 20,52,
  | 20,81,
  | 21,62,
  | 21,64,
  | 21,68,
  | 21,69,
  | 22,36,
  | 22,47,
  | 22,53,
  | 22,78,
  | 23,40,
  | 23,58,
  | 23,59,
  | 23,73,
  | 24,30,
  | 24,60,
  | 25,35,
  | 25,43,
  | 25,49,
  | 25,54,
  | 26,50,
  | 26,79,
  | 27,40,
  | 28,49,
  | 28,54,
  | 28,61,
  | 28,69,
  | 29,53,
  | 29,70,
  | 29,72,
  | 30,51,
  | 30,77,
  | 31,45,
  | 31,46,
  | 31,55,
  | 31,56,
  | 31,71,
  | 32,34,
  | 32,37,
  | 32,44,
  | 32,52,
  | 32,80,
  | 33,37,
  | 33,44,
  | 33,57,
  | 33,65,
  | 33,71,
  | 33,80,
  | 34,44,
  | 34,54,
  | 35,39,
  | 35,43,
  | 35,81,
  | 36,53,
  | 37,52,
  | 37,57,
  | 37,66,
  | 37,80,
  | 38,60,
  | 38,82,
  | 38,84,
  | 39,40,
  | 39,43,
  | 42,55,
  | 42,62,
  | 42,65,
  | 42,71,
  | 44,65,
  | 44,80,
  | 45,46,
  | 45,56,
  | 45,70,
  | 45,72,
  | 46,55,
  | 46,62,
  | 46,64,
  | 46,72,
  | 47,56,
  | 47,78,
  | 48,52,
  | 48,66,
  | 49,54,
  | 49,61,
  | 50,61,
  | 51,63,
  | 52,66,
  | 52,81,
  | 53,70,
  | 53,78,
  | 55,62,
  | 55,71,
  | 56,70,
  | 56,78,
  | 58,75,
  | 59,67,
  | 59,73,
  | 59,76,
  | 60,82,
  | 61,69,
  | 62,64,
  | 63,67,
  | 63,75,
  | 63,83,
  | 64,68,
  | 65,71,
  | 67,74,
  | 67,75,
  | 67,76,
  | 68,84,
  | 70,72,
  | 70,78,
  | 73,76,
  | 74,76,
  | 74,79,
  | 76,79,
  | 77,79,
  | 82,84 |];

